examples/programs/bounded/correct/conference-assign.txt
(Papers 1 BOUNDED 3) (Reviews 2)  (Reviewers 2 BOUNDED 2) (Conflicts 2) (ReviewersId 1)
requires
forall u p b (Reviewers(u, p, b) -> ~ Conflicts(u, p)) &&
forall u p (Reviews(u, p) -> ~ Conflicts(u, p)) &&
forall u (exists p (ReviewersId(u) -> Reviewers(u, p)))  

UPDATE Reviewers SET b0=1:2 WHERE Column1 = cpapid  
AND Column2 IN ( SELECT ReviewersId.Column1 FROM ReviewersId ) ;

DELETE FROM Reviewers WHERE Column1 = cpapid AND b0 != 1:2 ;


ensures
 forall u p b (Reviewers(u, p, b) -> ~ Conflicts(u, p)) &&
forall u p (Reviews(u, p) -> ~ Conflicts(u, p))&&
forall u (exists p (ReviewersId(u) -> Reviewers(u, p))) 